NAME : tsp_274_sol.txt
COMMENT : OR-Tools Guided Local Search
TYPE : TOUR
DIMENSION : 108
COST : 8087
STATUS : ROUTING_SUCCESS
GAP : 0.00% (Reference Solution)
TOUR_SECTION
1
30
71
14
84
21
47
93
79
24
75
83
10
90
7
32
50
88
97
70
3
55
54
53
99
62
15
9
77
56
5
35
41
27
67
49
74
89
98
94
104
26
46
36
33
106
28
2
64
65
92
48
95
91
23
8
80
81
72
96
51
45
12
102
4
19
103
108
43
17
37
38
61
107
59
6
101
87
52
34
58
86
25
39
68
85
13
42
22
20
44
18
82
66
100
78
105
73
57
40
63
29
69
31
16
76
11
60
-1
